FILENAME:   /home/mcs001/s132664/testsets/IP/miplib2017/neos-4797081-pakoka.mps.gz
SETTINGS:   settings_final_nosym_norestarts
TIMELIMIT:  7200
OUTPUTNAME: final_miplib_symretope_if_extended_generating_set_cpx_v802__settings_final_nosym_norestarts__2__
BINNAME:    bin/sbcs.linux.x86_64.gnu.opt.cpx
BASENAME:   neos-4797081-pakoka.mps.gz
SEED:       2
@01 /home/mcs001/s132664/testsets/IP/miplib2017/neos-4797081-pakoka.mps.gz ===========
@02 neos-4797081-pakoka.mps.gz
@03 1686656529
SCIP version 8.0.2 [precision: 8 byte] [memory: block] [mode: optimized] [LP solver: CPLEX 20.1.0.0] [GitHash: 5f0473c]
Copyright (C) 2002-2022 Konrad-Zuse-Zentrum fuer Informationstechnik Berlin (ZIB)

Symretope propagation methods - (c) Jasper van Doornmalen, Christopher Hojny.
[GitHash: 2fd0484]

reading parameter file <../settings/settings_final_nosym_norestarts.set> ...

Changed settings:
limits/time = 7200
limits/restarts = 0
misc/usesymmetry = 0
randomization/randomseedshift = 2
constraints/orbisack/sepafreq = -1
constraints/symresack/sepafreq = -1
propagating/symmetry/detectsubgroups = FALSE
propagating/symmetry/usesymretopes = FALSE
propagating/symmetry/relabelsymretopes = 0
propagating/symmetry/ofsymcomptiming = 0
constraints/symretope/sepafreq = -1
constraints/symretope/peek = FALSE


solving problem ...

original problem has 12393 variables (9930 bin, 2463 int, 0 impl, 0 cont) and 7147 constraints
presolving:
(round 1, fast)       72 del vars, 367 del conss, 0 add conss, 2240 chg bounds, 0 chg sides, 0 chg coeffs, 0 upgd conss, 0 impls, 1655 clqs
(round 2, fast)       506 del vars, 584 del conss, 0 add conss, 2511 chg bounds, 0 chg sides, 0 chg coeffs, 0 upgd conss, 0 impls, 1655 clqs
(round 3, fast)       506 del vars, 740 del conss, 0 add conss, 2511 chg bounds, 0 chg sides, 0 chg coeffs, 0 upgd conss, 0 impls, 1655 clqs
(round 4, fast)       532 del vars, 896 del conss, 0 add conss, 2511 chg bounds, 0 chg sides, 0 chg coeffs, 0 upgd conss, 0 impls, 1655 clqs
(round 5, fast)       640 del vars, 1004 del conss, 0 add conss, 2511 chg bounds, 0 chg sides, 0 chg coeffs, 0 upgd conss, 0 impls, 1655 clqs
(round 6, fast)       640 del vars, 1004 del conss, 0 add conss, 2637 chg bounds, 0 chg sides, 0 chg coeffs, 0 upgd conss, 0 impls, 1655 clqs
(round 7, exhaustive) 640 del vars, 2150 del conss, 0 add conss, 2637 chg bounds, 0 chg sides, 0 chg coeffs, 0 upgd conss, 0 impls, 1655 clqs
(round 8, exhaustive) 640 del vars, 2150 del conss, 0 add conss, 2637 chg bounds, 0 chg sides, 0 chg coeffs, 3449 upgd conss, 0 impls, 1655 clqs
   (1.5s) sparsify aborted: 4968/451080 (1.1%) nonzeros canceled - in total 4968 canceled nonzeros, 4968 changed coefficients, 0 added nonzeros
(round 9, exhaustive) 640 del vars, 2150 del conss, 0 add conss, 2637 chg bounds, 0 chg sides, 4968 chg coeffs, 3449 upgd conss, 24 impls, 1655 clqs
(round 10, exhaustive) 640 del vars, 2156 del conss, 0 add conss, 2637 chg bounds, 0 chg sides, 4968 chg coeffs, 3449 upgd conss, 24 impls, 1655 clqs
   (8.2s) probing: 1000/9986 (10.0%) - 0 fixings, 0 aggregations, 59122 implications, 6 bound changes
   (8.2s) probing: 1001/9986 (10.0%) - 0 fixings, 0 aggregations, 59183 implications, 6 bound changes
   (8.2s) probing aborted: 1000/1000 successive useless probings
presolving (11 rounds: 11 fast, 5 medium, 5 exhaustive):
 640 deleted vars, 2156 deleted constraints, 0 added constraints, 2643 tightened bounds, 0 added holes, 0 changed sides, 4968 changed coefficients
 59208 implications, 1655 cliques
presolved problem has 11753 variables (9986 bin, 1767 int, 0 impl, 0 cont) and 4991 constraints
   1794 constraints of type <varbound>
   1655 constraints of type <setppc>
   1542 constraints of type <linear>
transformed objective value is always integral (scale: 1)
Presolving Time: 8.25

 time | node  | left  |LP iter|LP it/n|mem/heur|mdpt |vars |cons |rows |cuts |sepa|confs|strbr|  dualbound   | primalbound  |  gap   | compl. 
 18.9s|     1 |     0 |  3310 |     - |   376M |   0 |  11k|5040 |4991 |   0 |  0 |  52 |   0 | 0.000000e+00 |      --      |    Inf | unknown
  115s|     1 |     0 | 40839 |     - |   397M |   0 |  11k|5046 |5001 |  10 |  1 |  58 |   0 | 0.000000e+00 |      --      |    Inf | unknown
 2242s|     1 |     2 |109223 |     - |   398M |   0 |  11k|5050 |5001 |  10 |  3 |  62 |  21 | 0.000000e+00 |      --      |    Inf | unknown
 6510s|   100 |   101 |  1132k|11031.6 |   402M |  39 |  11k|5050 |4997 |  10 |  1 |  62 |  21 | 0.000000e+00 |      --      |    Inf | unknown

SCIP Status        : solving was interrupted [time limit reached]
Solving Time (sec) : 7200.05
Solving Nodes      : 130
Primal Bound       : +1.00000000000000e+20 (0 solutions)
Dual Bound         : +0.00000000000000e+00
Gap                : infinite
SCIP Status        : solving was interrupted [time limit reached]
Total Time         :    7200.29
  solving          :    7200.05
  presolving       :       8.25 (included in solving)
  reading          :       0.24
  copying          :       0.30 (4 #copies) (minimal 0.06, maximal 0.08, average 0.08)
Original Problem   :
  Problem name     : neos-4797081-pakoka
  Variables        : 12393 (9930 binary, 2463 integer, 0 implicit integer, 0 continuous)
  Constraints      : 7147 initial, 7147 maximal
  Objective        : minimize, 0 non-zeros (abs.min = 1e+20, abs.max = -1e+20)
Presolved Problem  :
  Problem name     : t_neos-4797081-pakoka
  Variables        : 11753 (9986 binary, 1767 integer, 0 implicit integer, 0 continuous)
  Constraints      : 4991 initial, 5050 maximal
  Objective        : minimize, 0 non-zeros (abs.min = 1e+20, abs.max = -1e+20)
  Nonzeros         : 441150 constraint, 9930 clique table
Presolvers         :   ExecTime  SetupTime  Calls  FixedVars   AggrVars   ChgTypes  ChgBounds   AddHoles    DelCons    AddCons   ChgSides   ChgCoefs
  boundshift       :       0.00       0.00      0          0          0          0          0          0          0          0          0          0
  convertinttobin  :       0.00       0.00      0          0          0          0          0          0          0          0          0          0
  domcol           :       0.14       0.00      2          0          0          0          0          0          0          0          0          0
  dualagg          :       0.00       0.00      0          0          0          0          0          0          0          0          0          0
  dualcomp         :       0.00       0.00      0          0          0          0          0          0          0          0          0          0
  dualinfer        :       0.00       0.00      0          0          0          0          0          0          0          0          0          0
  dualsparsify     :       0.10       0.00      1          0          0          0          0          0          0          0          0          0
  gateextraction   :       0.00       0.00      0          0          0          0          0          0          0          0          0          0
  implics          :       0.00       0.00      5          0          0          0          0          0          0          0          0          0
  inttobinary      :       0.00       0.00     11          0          0          0          0          0          0          0          0          0
  qpkktref         :       0.00       0.00      0          0          0          0          0          0          0          0          0          0
  redvub           :       0.00       0.00      0          0          0          0          0          0          0          0          0          0
  sparsify         :       1.83       0.00      2          0          0          0          0          0          0          0          0       4968
  stuffing         :       0.00       0.00      0          0          0          0          0          0          0          0          0          0
  trivial          :       0.01       0.00     11          0          0          0          0          0          0          0          0          0
  tworowbnd        :       0.00       0.00      0          0          0          0          0          0          0          0          0          0
  dualfix          :       0.01       0.00     11         26          0          0          0          0          0          0          0          0
  genvbounds       :       0.00       0.00      0          0          0          0          0          0          0          0          0          0
  probing          :       5.76       0.00      1          0          0          0          6          0          0          0          0          0
  pseudoobj        :       0.00       0.00      0          0          0          0          0          0          0          0          0          0
  symmetry         :       0.00       0.00      0          0          0          0          0          0          0          0          0          0
  vbounds          :       0.01       0.00      1          0          0          0          0          0          0          0          0          0
  varbound         :       0.00       0.00      6          0          0          0          0          0          0          0          0          0
  setppc           :       0.01       0.00      9          0          0          0          0          0          0          0          0          0
  linear           :       0.28       0.11     16         24        590          0       2637          0       2156          0          0          0
  logicor          :       0.00       0.00      0          0          0          0          0          0          0          0          0          0
  bounddisjunction :       0.00       0.00      0          0          0          0          0          0          0          0          0          0
  benders          :       0.00       0.00      0          0          0          0          0          0          0          0          0          0
  components       :       0.07       0.00      1          0          0          0          0          0          0          0          0          0
  root node        :          -          -      -          0          -          -          0          -          -          -          -          -
Constraints        :     Number  MaxNumber  #Separate #Propagate    #EnfoLP    #EnfoRelax  #EnfoPS    #Check   #ResProp    Cutoffs    DomReds       Cuts    Applied      Conss   Children
  benderslp        :          0          0          0          0        129          0          0         15          0          0          0          0          0          0          0
  integral         :          0          0          0          0        129          0          0         15          0          0          0          0          0          0        258
  varbound         :       1794       1794          2      55391          0          0          0         10          0          0          0          0          0          0          0
  setppc           :       1655       1655          2      55391          0          0          0          3         40          3        383          0          0          0          0
  linear           :       1542       1542          2      55388          0          0          0          2       1051        121       4767          0          0          0          0
  logicor          :          0+        44          2         86          0          0          0          0          0          0          0          0          0          0          0
  bounddisjunction :          0+        15          0        195          0          0          0          0          0          0          0          0          0          0          0
  benders          :          0          0          0          0          0          0          0          0          0          0          0          0          0          0          0
  countsols        :          0          0          0          0          0          0          0          0          0          0          0          0          0          0          0
  components       :          0          0          0          0          0          0          0          0          0          0          0          0          0          0          0
Constraint Timings :  TotalTime  SetupTime   Separate  Propagate     EnfoLP     EnfoPS     EnfoRelax   Check    ResProp    SB-Prop
  benderslp        :       0.00       0.00       0.00       0.00       0.00       0.00       0.00       0.00       0.00       0.00
  integral         :      43.10       0.00       0.00       0.00      43.10       0.00       0.00       0.00       0.00       0.00
  varbound         :       0.27       0.00       0.00       0.27       0.00       0.00       0.00       0.00       0.00       0.00
  setppc           :       0.66       0.00       0.00       0.65       0.00       0.00       0.00       0.00       0.00       0.00
  linear           :       9.06       0.11       0.08       8.85       0.00       0.00       0.00       0.00       0.01       0.01
  logicor          :       0.00       0.00       0.00       0.00       0.00       0.00       0.00       0.00       0.00       0.00
  bounddisjunction :       0.00       0.00       0.00       0.00       0.00       0.00       0.00       0.00       0.00       0.00
  benders          :       0.00       0.00       0.00       0.00       0.00       0.00       0.00       0.00       0.00       0.00
  countsols        :       0.00       0.00       0.00       0.00       0.00       0.00       0.00       0.00       0.00       0.00
  components       :       0.00       0.00       0.00       0.00       0.00       0.00       0.00       0.00       0.00       0.00
Propagators        : #Propagate   #ResProp    Cutoffs    DomReds
  dualfix          :          1          0          0          0
  genvbounds       :          0          0          0          0
  nlobbt           :          0          0          0          0
  obbt             :          0          0          0          0
  probing          :          0          0          0          0
  pseudoobj        :          0          0          0          0
  redcost          :          0          0          0          0
  rootredcost      :          0          0          0          0
  symmetry         :          0          0          0          0
  vbounds          :      30747          6          0      11323
Propagator Timings :  TotalTime  SetupTime   Presolve  Propagate    ResProp    SB-Prop
  dualfix          :       0.01       0.00       0.01       0.00       0.00       0.00
  genvbounds       :       0.01       0.00       0.00       0.01       0.00       0.00
  nlobbt           :       0.00       0.00       0.00       0.00       0.00       0.00
  obbt             :       0.00       0.00       0.00       0.00       0.00       0.00
  probing          :       5.76       0.00       5.76       0.00       0.00       0.00
  pseudoobj        :       0.00       0.00       0.00       0.00       0.00       0.00
  redcost          :       0.00       0.00       0.00       0.00       0.00       0.00
  rootredcost      :       0.00       0.00       0.00       0.00       0.00       0.00
  symmetry         :       0.00       0.00       0.00       0.00       0.00       0.00
  vbounds          :       0.84       0.00       0.01       0.84       0.00       0.00
Conflict Analysis  :       Time      Calls    Success    DomReds  Conflicts   Literals    Reconvs ReconvLits   Dualrays   Nonzeros   LP Iters   (pool size: [10000,10000])
  propagation      :       0.02         31         31          -         63      179.4          0        0.0          -          -          -
  infeasible LP    :       0.00          0          0          -          0        0.0          0        0.0          0        0.0          0
  bound exceed. LP :       0.00          0          0          -          0        0.0          0        0.0          0        0.0          0
  strong branching :       0.00          0          0          -          0        0.0          0        0.0          -          -          0
  pseudo solution  :       0.00          0          0          -          0        0.0          0        0.0          -          -          -
  applied globally :       0.00          -          -          0         62      182.1          -          -          0          -          -
  applied locally  :          -          -          -          0          0        0.0          -          -          0          -          -
Separators         :   ExecTime  SetupTime      Calls  RootCalls    Cutoffs    DomReds  FoundCuts ViaPoolAdd  DirectAdd    Applied ViaPoolApp  DirectApp      Conss
  cut pool         :       0.00          -         16          3          -          -        151         35          -          -          -          -          -    (maximal pool size:        151)
  aggregation      :       0.31       0.00          6          2          0          0          0          0          0          0          0          0          0
  > cmir           :          -          -          -          -          -          -          -          0          0          0          0          0          -
  > flowcover      :          -          -          -          -          -          -          -          0          0          0          0          0          -
  > knapsackcover  :          -          -          -          -          -          -          -          0          0          0          0          0          -
  cgmip            :       0.00       0.00          0          0          0          0          0          0          0          0          0          0          0
  clique           :       0.08       0.00          2          2          0          0          0          0          0          0          0          0          0
  closecuts        :       0.00       0.00          0          0          0          0          0          0          0          0          0          0          0
  convexproj       :       0.00       0.00          0          0          0          0          0          0          0          0          0          0          0
  disjunctive      :       0.00       0.00          0          0          0          0          0          0          0          0          0          0          0
  eccuts           :       0.00       0.00          0          0          0          0          0          0          0          0          0          0          0
  gauge            :       0.00       0.00          0          0          0          0          0          0          0          0          0          0          0
  gomory           :       8.07       0.00          6          2          0          0        132         33          0          9          9          0          0
  > gomorymi       :          -          -          -          -          -          -          -         11          0          4          4          0          -
  > strongcg       :          -          -          -          -          -          -          -         22          0          5          5          0          -
  impliedbounds    :       0.00       0.00          6          2          0          0          0          0          0          0          0          0          0
  interminor       :       0.00       0.00          0          0          0          0          0          0          0          0          0          0          0
  intobj           :       0.00       0.00          0          0          0          0          0          0          0          0          0          0          0
  mcf              :       0.06       0.00          1          1          0          0          0          0          0          0          0          0          0
  minor            :       0.00       0.00          0          0          0          0          0          0          0          0          0          0          0
  mixing           :       0.00       0.00          6          2          0          0          0          0          0          0          0          0          0
  oddcycle         :       0.00       0.00          0          0          0          0          0          0          0          0          0          0          0
  rapidlearning    :       0.00       0.00          0          0          0          0          0          0          0          0          0          0          0
  rlt              :       0.00       0.00          2          2          0          0          0          0          0          0          0          0          0
  zerohalf         :       5.71       0.00          6          2          0          0         23          2          4          5          1          4          0
Cutselectors       :   ExecTime  SetupTime      Calls  RootCalls   Selected     Forced   Filtered  RootSelec   RootForc   RootFilt 
  hybrid           :       0.00       0.00          3          1         14          0         25         10          0         25
Pricers            :   ExecTime  SetupTime      Calls       Vars
  problem variables:       0.00          -          0          0
Branching Rules    :   ExecTime  SetupTime   BranchLP  BranchExt   BranchPS    Cutoffs    DomReds       Cuts      Conss   Children
  allfullstrong    :       0.00       0.00          0          0          0          0          0          0          0          0
  cloud            :       0.00       0.00          0          0          0          0          0          0          0          0
  distribution     :       0.00       0.00          0          0          0          0          0          0          0          0
  fullstrong       :       0.00       0.00          0          0          0          0          0          0          0          0
  inference        :       0.00       0.00          0          0          0          0          0          0          0          0
  leastinf         :       0.00       0.00          0          0          0          0          0          0          0          0
  lookahead        :       0.00       0.00          0          0          0          0          0          0          0          0
  mostinf          :       0.00       0.00          0          0          0          0          0          0          0          0
  multaggr         :       0.00       0.00          0          0          0          0          0          0          0          0
  nodereopt        :       0.00       0.00          0          0          0          0          0          0          0          0
  pscost           :       0.00       0.00          0          0          0          0          0          0          0          0
  random           :       0.00       0.00          0          0          0          0          0          0          0          0
  relpscost        :      43.10       0.00        129          0          0          0          0          0          0        258
  vanillafullstrong:       0.00       0.00          0          0          0          0          0          0          0          0
Primal Heuristics  :   ExecTime  SetupTime      Calls      Found       Best
  LP solutions     :       0.00          -          -          0          0
  relax solutions  :       0.00          -          -          0          0
  pseudo solutions :       0.00          -          -          0          0
  strong branching :       0.00          -          -          0          0
  actconsdiving    :       0.00       0.00          0          0          0
  adaptivediving   :     108.35       0.00          3          0          0
  alns             :     498.97       0.00          3          0          0
  bound            :       0.00       0.00          0          0          0
  clique           :       0.62       0.00          1          0          0
  coefdiving       :       0.00       0.00          0          0          0
  completesol      :       0.00       0.00          0          0          0
  conflictdiving   :     840.32       0.00          4          0          0
  crossover        :       0.00       0.00          0          0          0
  dins             :       0.00       0.00          0          0          0
  distributiondivin:     291.31       0.00          4          0          0
  dps              :       0.00       0.00          0          0          0
  dualval          :       0.00       0.00          0          0          0
  farkasdiving     :       0.00       0.00          0          0          0
  feaspump         :     113.45       0.00          2          0          0
  fixandinfer      :       0.00       0.00          0          0          0
  fracdiving       :      22.38       0.00          5          0          0
  gins             :       0.00       0.00          0          0          0
  guideddiving     :       0.00       0.00          0          0          0
  indicator        :       0.00       0.00          0          0          0
  intdiving        :       0.00       0.00          0          0          0
  intshifting      :       0.00       0.00          0          0          0
  linesearchdiving :     349.09       0.00          3          0          0
  localbranching   :       0.00       0.00          0          0          0
  locks            :       0.94       0.00          1          0          0
  lpface           :       0.01       0.00          0          0          0
  mpec             :       0.00       0.00          0          0          0
  multistart       :       0.00       0.00          0          0          0
  mutation         :       0.00       0.00          0          0          0
  nlpdiving        :       0.00       0.00          0          0          0
  objpscostdiving  :     255.25       0.00          5          0          0
  octane           :       0.00       0.00          0          0          0
  ofins            :       0.00       0.00          0          0          0
  oneopt           :       0.00       0.00          0          0          0
  padm             :       0.00       0.00          0          0          0
  proximity        :       0.00       0.00          0          0          0
  pscostdiving     :     245.50       0.00          4          0          0
  randrounding     :       0.27       0.00          8          0          0
  rens             :    1856.46       0.00          1          0          0
  reoptsols        :       0.00       0.00          0          0          0
  repair           :       0.00       0.00          0          0          0
  rins             :       0.00       0.00          0          0          0
  rootsoldiving    :     105.64       0.00          2          0          0
  rounding         :       0.86       0.00        115          0          0
  shiftandpropagate:       0.42       0.00          1          0          0
  shifting         :       1.17       0.00         12          0          0
  simplerounding   :       0.00       0.00          0          0          0
  subnlp           :       0.00       0.00          0          0          0
  trivial          :       0.04       0.00          2          0          0
  trivialnegation  :       0.00       0.00          0          0          0
  trustregion      :       0.00       0.00          0          0          0
  trysol           :       0.00       0.00          0          0          0
  twoopt           :       0.00       0.00          0          0          0
  undercover       :       0.00       0.00          0          0          0
  vbounds          :       3.48       0.00          1          0          0
  veclendiving     :     374.09       0.00          4          0          0
  zeroobj          :       0.00       0.00          0          0          0
  zirounding       :       0.19       0.00        129          0          0
  other solutions  :          -          -          -          0          -
LP                 :       Time      Calls Iterations  Iter/call   Iter/sec  Time-0-It Calls-0-It    ItLimit
  primal LP        :       5.92          1          0       0.00       0.00       5.92          1
  dual LP          :    2058.38        133     603519    4537.74     293.20       0.00          0
  lex dual LP      :       0.00          0          0       0.00          -
  barrier LP       :       0.00          0          0       0.00          -       0.00          0
  resolve instable :       0.00          0          0       0.00          -
  diving/probing LP:    2698.37        212     755658    3564.42     280.04
  strong branching :      42.68         21      14185     675.48     332.39          -          -         20
    (at root node) :          -         21      14185     675.48          -
  conflict analysis:       0.00          0          0       0.00          -
B&B Tree           :
  number of runs   :          1
  nodes            :        130 (129 internal, 1 leaves)
  feasible leaves  :          0
  infeas. leaves   :          0
  objective leaves :          0
  nodes (total)    :        130 (129 internal, 1 leaves)
  nodes left       :        130
  max depth        :         51
  max depth (total):         51
  backtracks       :         39 (30.0%)
  early backtracks :          0 (0.0%)
  nodes exc. ref.  :          0 (0.0%)
  delayed cutoffs  :          0
  repropagations   :          0 (0 domain reductions, 0 cutoffs)
  avg switch length:       2.29
  switching time   :       5.95
Root Node          :
  First LP value   : +0.00000000000000e+00
  First LP Iters   :       3310 (664.53 Iter/sec)
  First LP Time    :       4.98
  Final Dual Bound : +0.00000000000000e+00
  Final Root Iters :      40839
  Root LP Estimate : +2.33043394290219e-02
Solution           :
  Solutions found  :          0 (0 improvements)
  Primal Bound     :          -
  Dual Bound       : +0.00000000000000e+00
  Gap              :   infinite
Integrals          :      Total       Avg%
  primal-dual      :  720004.99     100.00
  primal-ref       :          -          - (not evaluated)
  dual-ref         :          -          - (not evaluated)
written solution information to file <results/final_miplib_symretope_if_extended_generating_set_cpx_v802__settings_final_nosym_norestarts__2__neos-4797081-pakoka.mps.gz.sol>
@04 1686663730
